(set-info :smt-lib-version 2.6)
(set-logic QF_S)
(set-info :source |
Generated by: Murphy Berzish, Mitja Kulczynski, Federico Mora, Florin Manea, Joel Day, Dirk Nowotka, Vijay Ganesh, Zhengyang Lu
Generated on: 2020-10-01
Description: Translated from a collection of real-world regex queries, AutomataArk, collected by Loris D’Antoni and Fang Wang: https://github.com/lorisdanto/automatark
Application: Evaluate solvers on real-world regex queries
Target solver: Z3str3RE, CVC4, OSTRICH, Z3seq, Z3str3, Z3-Trau
Publications: Berzish, M., Kulczynski, M., Mora, F., Manea, F., Day, J. D., Nowotka, D., & Ganesh, V. (2021, July). An SMT solver for regular expressions and linear arithmetic over string length. In CAV 2021.
|)
(set-info :license "https://creativecommons.org/licenses/by/4.0/")
(set-info :category "industrial")
(set-info :status unsat)

(declare-const X String)
(assert (not (str.in_re X (re.++ (re.range "A" "G") (re.opt (re.union (str.to_re "b") (str.to_re "#"))) (re.opt (re.++ (re.union (re.++ (str.to_re "m") (re.opt (str.to_re "aj"))) (str.to_re "M") (str.to_re "aug") (str.to_re "dim") (str.to_re "sus")) (re.opt (re.union (re.range "2" "7") (str.to_re "9") (str.to_re "13"))))) (re.opt (re.++ (str.to_re "/") (re.range "A" "G") (re.opt (re.union (str.to_re "b") (str.to_re "#"))))) (str.to_re "\u{a}")))))
(assert (str.in_re X (re.++ (str.to_re "Host:") (re.+ (re.range "0" "9")) (str.to_re "Black") (re.+ (re.union (str.to_re " ") (str.to_re "\u{9}") (str.to_re "\u{a}") (str.to_re "\u{c}") (str.to_re "\u{d}"))) (str.to_re "daosearch.comMyPostwww.raxsearch.com\u{a}"))))
(assert (str.in_re X (re.++ (str.to_re "ShadowNet") (re.range "0" "9") (str.to_re "searchreslt") (re.union (str.to_re " ") (str.to_re "\u{9}") (str.to_re "\u{a}") (str.to_re "\u{c}") (str.to_re "\u{d}")) (str.to_re "TROJAN-Host:YWRtaW46cGFzc3dvcmQ\u{a}"))))
(check-sat)

(exit)
